c ind 1 2 3 4 5 6 7 8 9 10 11 12 13 14 15 16 17 18 19 20 21 22 23 24 25 26 27 28 29 30 31 32 33 34 35 36 37 38 39 40 41 42 43 44 45 46 47 0
p cnf 883 1520              
-3 1 -48 0
48 -52 0
-4 1 -49 0
49 -52 0
-5 2 -50 0
50 -52 0
-6 2 -51 0
51 -52 0
52 -73 0
-7 1 -53 0
53 -57 0
-8 1 -54 0
54 -57 0
-9 2 -55 0
55 -57 0
-10 2 -56 0
56 -57 0
57 -73 0
-11 1 -58 0
58 -62 0
-12 1 -59 0
59 -62 0
-13 2 -60 0
60 -62 0
-14 2 -61 0
61 -62 0
62 -73 0
-15 1 -63 0
63 -67 0
-16 1 -64 0
64 -67 0
-17 2 -65 0
65 -67 0
-18 2 -66 0
66 -67 0
67 -73 0
-19 1 -68 0
68 -72 0
-20 1 -69 0
69 -72 0
-21 2 -70 0
70 -72 0
-22 2 -71 0
71 -72 0
72 -73 0
-23 1 -89 0
89 -93 0
-24 1 -90 0
90 -93 0
-25 2 -91 0
91 -93 0
-26 2 -92 0
92 -93 0
93 -114 0
-27 1 -94 0
94 -98 0
-28 1 -95 0
95 -98 0
-29 2 -96 0
96 -98 0
-30 2 -97 0
97 -98 0
98 -114 0
-31 1 -99 0
99 -103 0
-32 1 -100 0
100 -103 0
-33 2 -101 0
101 -103 0
-34 2 -102 0
102 -103 0
103 -114 0
-35 1 -104 0
104 -108 0
-36 1 -105 0
105 -108 0
-37 2 -106 0
106 -108 0
-38 2 -107 0
107 -108 0
108 -114 0
-39 1 -109 0
109 -113 0
-40 1 -110 0
110 -113 0
-41 2 -111 0
111 -113 0
-42 2 -112 0
112 -113 0
113 -114 0
-3 130 0
-23 130 0
-130 134 0
-4 131 0
-24 131 0
-131 134 0
-5 132 0
-25 132 0
-132 134 0
-6 133 0
-26 133 0
-133 134 0
-134 -840 0
-7 3 -135 0
135 -139 0
-8 4 -136 0
136 -139 0
-9 5 -137 0
137 -139 0
-10 6 -138 0
138 -139 0
139 -145 0
-3 7 -140 0
140 -144 0
-4 8 -141 0
141 -144 0
-5 9 -142 0
142 -144 0
-6 10 -143 0
143 -144 0
144 -145 0
145 -157 0
-27 23 -146 0
146 -150 0
-28 24 -147 0
147 -150 0
-29 25 -148 0
148 -150 0
-30 26 -149 0
149 -150 0
150 -156 0
-23 27 -151 0
151 -155 0
-24 28 -152 0
152 -155 0
-25 29 -153 0
153 -155 0
-26 30 -154 0
154 -155 0
155 -156 0
156 -157 0
1 -183 0
-23 115 0
-24 115 0
-115 -180 0
-3 -170 0
-3 158 0
-5 158 0
3 5 -158 0
-27 117 0
-28 117 0
-117 -161 0
136 -160 0
7 -159 0
141 -159 0
159 -160 0
160 -161 0
158 161 -162 0
162 -169 0
135 -163 0
136 -163 0
163 -165 0
140 -164 0
141 -164 0
164 -165 0
165 -167 0
-28 -166 0
27 -166 0
166 -167 0
-158 167 -168 0
168 -169 0
169 -170 0
170 -179 0
137 -171 0
138 -171 0
171 -173 0
142 -172 0
143 -172 0
172 -173 0
173 -177 0
148 -174 0
149 -174 0
174 -176 0
153 -175 0
154 -175 0
175 -176 0
176 -177 0
-2 177 -178 0
178 -179 0
179 -180 0
180 -182 0
-4 -181 0
-3 -181 0
181 -182 0
182 -183 0
1 -196 0
-115 -195 0
178 -194 0
-4 -193 0
-4 184 0
-6 184 0
4 6 -184 0
-117 -187 0
135 -186 0
8 -185 0
140 -185 0
185 -186 0
186 -187 0
184 187 -188 0
188 -192 0
165 -190 0
-27 -189 0
28 -189 0
189 -190 0
-184 190 -191 0
191 -192 0
192 -193 0
193 -194 0
194 -195 0
195 -196 0
2 -215 0
-25 116 0
-26 116 0
-116 -212 0
-5 -205 0
-29 118 0
-30 118 0
-118 -199 0
138 -198 0
9 -197 0
143 -197 0
197 -198 0
198 -199 0
158 199 -200 0
200 -204 0
173 -202 0
-30 -201 0
29 -201 0
201 -202 0
-158 202 -203 0
203 -204 0
204 -205 0
205 -211 0
165 -209 0
146 -206 0
147 -206 0
206 -208 0
151 -207 0
152 -207 0
207 -208 0
208 -209 0
-1 209 -210 0
210 -211 0
211 -212 0
212 -214 0
-6 -213 0
-5 -213 0
213 -214 0
214 -215 0
2 -227 0
-116 -226 0
210 -225 0
-6 -224 0
-118 -218 0
137 -217 0
10 -216 0
142 -216 0
216 -217 0
217 -218 0
184 218 -219 0
219 -223 0
173 -221 0
-29 -220 0
30 -220 0
220 -221 0
-184 221 -222 0
222 -223 0
223 -224 0
224 -225 0
225 -226 0
226 -227 0
183 196 215 227 -228 0
157 228 -229 0
1 -262 0
-115 -250 0
-117 -230 0
3 -230 0
230 -249 0
-23 231 0
-25 231 0
23 25 -231 0
-27 233 0
-29 233 0
27 29 -233 0
-233 -234 0
-7 232 0
-9 232 0
7 9 -232 0
-232 -234 0
231 234 -235 0
235 -248 0
23 -240 0
153 -237 0
-27 -236 0
148 -236 0
236 -237 0
237 -239 0
-9 -238 0
7 -238 0
238 -239 0
239 -240 0
25 -245 0
151 -242 0
-29 -241 0
146 -241 0
241 -242 0
242 -244 0
-7 -243 0
9 -243 0
243 -244 0
244 -245 0
240 245 -246 0
-231 246 -247 0
247 -248 0
248 -249 0
249 -250 0
250 -261 0
141 -252 0
-7 -251 0
136 -251 0
251 -252 0
252 -260 0
147 -253 0
149 -253 0
253 -255 0
152 -254 0
154 -254 0
254 -255 0
255 -259 0
136 -256 0
138 -256 0
256 -258 0
141 -257 0
143 -257 0
257 -258 0
258 -259 0
259 -260 0
260 -261 0
261 -262 0
1 -295 0
-115 -283 0
-117 -263 0
4 -263 0
263 -282 0
-24 264 0
-26 264 0
24 26 -264 0
-28 266 0
-30 266 0
28 30 -266 0
-266 -267 0
-8 265 0
-10 265 0
8 10 -265 0
-265 -267 0
264 267 -268 0
268 -281 0
24 -273 0
154 -270 0
-28 -269 0
149 -269 0
269 -270 0
270 -272 0
-10 -271 0
8 -271 0
271 -272 0
272 -273 0
26 -278 0
152 -275 0
-30 -274 0
147 -274 0
274 -275 0
275 -277 0
-8 -276 0
10 -276 0
276 -277 0
277 -278 0
273 278 -279 0
-264 279 -280 0
280 -281 0
281 -282 0
282 -283 0
283 -294 0
140 -285 0
-8 -284 0
135 -284 0
284 -285 0
285 -293 0
146 -286 0
148 -286 0
286 -288 0
151 -287 0
153 -287 0
287 -288 0
288 -292 0
135 -289 0
137 -289 0
289 -291 0
140 -290 0
142 -290 0
290 -291 0
291 -292 0
292 -293 0
293 -294 0
294 -295 0
2 -303 0
-116 -298 0
248 -297 0
-118 -296 0
5 -296 0
296 -297 0
297 -298 0
298 -302 0
259 -301 0
143 -300 0
-9 -299 0
138 -299 0
299 -300 0
300 -301 0
301 -302 0
302 -303 0
2 -311 0
-116 -306 0
281 -305 0
-118 -304 0
6 -304 0
304 -305 0
305 -306 0
306 -310 0
292 -309 0
142 -308 0
-10 -307 0
137 -307 0
307 -308 0
308 -309 0
309 -310 0
310 -311 0
262 295 303 311 -312 0
229 312 -313 0
313 -839 0
-11 7 -314 0
314 -318 0
-12 8 -315 0
315 -318 0
-13 9 -316 0
316 -318 0
-14 10 -317 0
317 -318 0
318 -324 0
-7 11 -319 0
319 -323 0
-8 12 -320 0
320 -323 0
-9 13 -321 0
321 -323 0
-10 14 -322 0
322 -323 0
323 -324 0
324 -336 0
-31 27 -325 0
325 -329 0
-32 28 -326 0
326 -329 0
-33 29 -327 0
327 -329 0
-34 30 -328 0
328 -329 0
329 -335 0
-27 31 -330 0
330 -334 0
-28 32 -331 0
331 -334 0
-29 33 -332 0
332 -334 0
-30 34 -333 0
333 -334 0
334 -335 0
335 -336 0
1 -361 0
-117 -358 0
-7 -348 0
-31 119 0
-32 119 0
-119 -339 0
315 -338 0
11 -337 0
320 -337 0
337 -338 0
338 -339 0
232 339 -340 0
340 -347 0
314 -341 0
315 -341 0
341 -343 0
319 -342 0
320 -342 0
342 -343 0
343 -345 0
-32 -344 0
31 -344 0
344 -345 0
-232 345 -346 0
346 -347 0
347 -348 0
348 -357 0
316 -349 0
317 -349 0
349 -351 0
321 -350 0
322 -350 0
350 -351 0
351 -355 0
327 -352 0
328 -352 0
352 -354 0
332 -353 0
333 -353 0
353 -354 0
354 -355 0
-2 355 -356 0
356 -357 0
357 -358 0
358 -360 0
-8 -359 0
-7 -359 0
359 -360 0
360 -361 0
1 -373 0
-117 -372 0
356 -371 0
-8 -370 0
-119 -364 0
314 -363 0
12 -362 0
319 -362 0
362 -363 0
363 -364 0
265 364 -365 0
365 -369 0
343 -367 0
-31 -366 0
32 -366 0
366 -367 0
-265 367 -368 0
368 -369 0
369 -370 0
370 -371 0
371 -372 0
372 -373 0
2 -392 0
-118 -389 0
-9 -382 0
-33 120 0
-34 120 0
-120 -376 0
317 -375 0
13 -374 0
322 -374 0
374 -375 0
375 -376 0
232 376 -377 0
377 -381 0
351 -379 0
-34 -378 0
33 -378 0
378 -379 0
-232 379 -380 0
380 -381 0
381 -382 0
382 -388 0
343 -386 0
325 -383 0
326 -383 0
383 -385 0
330 -384 0
331 -384 0
384 -385 0
385 -386 0
-1 386 -387 0
387 -388 0
388 -389 0
389 -391 0
-10 -390 0
-9 -390 0
390 -391 0
391 -392 0
2 -404 0
-118 -403 0
387 -402 0
-10 -401 0
-120 -395 0
316 -394 0
14 -393 0
321 -393 0
393 -394 0
394 -395 0
265 395 -396 0
396 -400 0
351 -398 0
-33 -397 0
34 -397 0
397 -398 0
-265 398 -399 0
399 -400 0
400 -401 0
401 -402 0
402 -403 0
403 -404 0
361 373 392 404 -405 0
336 405 -406 0
1 -438 0
-117 -426 0
-119 -407 0
7 -407 0
407 -425 0
-31 409 0
-33 409 0
31 33 -409 0
-409 -410 0
-11 408 0
-13 408 0
11 13 -408 0
-408 -410 0
233 410 -411 0
411 -424 0
27 -416 0
332 -413 0
-31 -412 0
327 -412 0
412 -413 0
413 -415 0
-13 -414 0
11 -414 0
414 -415 0
415 -416 0
29 -421 0
330 -418 0
-33 -417 0
325 -417 0
417 -418 0
418 -420 0
-11 -419 0
13 -419 0
419 -420 0
420 -421 0
416 421 -422 0
-233 422 -423 0
423 -424 0
424 -425 0
425 -426 0
426 -437 0
320 -428 0
-11 -427 0
315 -427 0
427 -428 0
428 -436 0
326 -429 0
328 -429 0
429 -431 0
331 -430 0
333 -430 0
430 -431 0
431 -435 0
315 -432 0
317 -432 0
432 -434 0
320 -433 0
322 -433 0
433 -434 0
434 -435 0
435 -436 0
436 -437 0
437 -438 0
1 -470 0
-117 -458 0
-119 -439 0
8 -439 0
439 -457 0
-32 441 0
-34 441 0
32 34 -441 0
-441 -442 0
-12 440 0
-14 440 0
12 14 -440 0
-440 -442 0
266 442 -443 0
443 -456 0
28 -448 0
333 -445 0
-32 -444 0
328 -444 0
444 -445 0
445 -447 0
-14 -446 0
12 -446 0
446 -447 0
447 -448 0
30 -453 0
331 -450 0
-34 -449 0
326 -449 0
449 -450 0
450 -452 0
-12 -451 0
14 -451 0
451 -452 0
452 -453 0
448 453 -454 0
-266 454 -455 0
455 -456 0
456 -457 0
457 -458 0
458 -469 0
319 -460 0
-12 -459 0
314 -459 0
459 -460 0
460 -468 0
325 -461 0
327 -461 0
461 -463 0
330 -462 0
332 -462 0
462 -463 0
463 -467 0
314 -464 0
316 -464 0
464 -466 0
319 -465 0
321 -465 0
465 -466 0
466 -467 0
467 -468 0
468 -469 0
469 -470 0
2 -478 0
-118 -473 0
424 -472 0
-120 -471 0
9 -471 0
471 -472 0
472 -473 0
473 -477 0
435 -476 0
322 -475 0
-13 -474 0
317 -474 0
474 -475 0
475 -476 0
476 -477 0
477 -478 0
2 -486 0
-118 -481 0
456 -480 0
-120 -479 0
10 -479 0
479 -480 0
480 -481 0
481 -485 0
467 -484 0
321 -483 0
-14 -482 0
316 -482 0
482 -483 0
483 -484 0
484 -485 0
485 -486 0
438 470 478 486 -487 0
406 487 -488 0
488 -839 0
-15 11 -489 0
489 -493 0
-16 12 -490 0
490 -493 0
-17 13 -491 0
491 -493 0
-18 14 -492 0
492 -493 0
493 -499 0
-11 15 -494 0
494 -498 0
-12 16 -495 0
495 -498 0
-13 17 -496 0
496 -498 0
-14 18 -497 0
497 -498 0
498 -499 0
499 -511 0
-35 31 -500 0
500 -504 0
-36 32 -501 0
501 -504 0
-37 33 -502 0
502 -504 0
-38 34 -503 0
503 -504 0
504 -510 0
-31 35 -505 0
505 -509 0
-32 36 -506 0
506 -509 0
-33 37 -507 0
507 -509 0
-34 38 -508 0
508 -509 0
509 -510 0
510 -511 0
1 -536 0
-119 -533 0
-11 -523 0
-35 121 0
-36 121 0
-121 -514 0
490 -513 0
15 -512 0
495 -512 0
512 -513 0
513 -514 0
408 514 -515 0
515 -522 0
489 -516 0
490 -516 0
516 -518 0
494 -517 0
495 -517 0
517 -518 0
518 -520 0
-36 -519 0
35 -519 0
519 -520 0
-408 520 -521 0
521 -522 0
522 -523 0
523 -532 0
491 -524 0
492 -524 0
524 -526 0
496 -525 0
497 -525 0
525 -526 0
526 -530 0
502 -527 0
503 -527 0
527 -529 0
507 -528 0
508 -528 0
528 -529 0
529 -530 0
-2 530 -531 0
531 -532 0
532 -533 0
533 -535 0
-12 -534 0
-11 -534 0
534 -535 0
535 -536 0
1 -548 0
-119 -547 0
531 -546 0
-12 -545 0
-121 -539 0
489 -538 0
16 -537 0
494 -537 0
537 -538 0
538 -539 0
440 539 -540 0
540 -544 0
518 -542 0
-35 -541 0
36 -541 0
541 -542 0
-440 542 -543 0
543 -544 0
544 -545 0
545 -546 0
546 -547 0
547 -548 0
2 -567 0
-120 -564 0
-13 -557 0
-37 122 0
-38 122 0
-122 -551 0
492 -550 0
17 -549 0
497 -549 0
549 -550 0
550 -551 0
408 551 -552 0
552 -556 0
526 -554 0
-38 -553 0
37 -553 0
553 -554 0
-408 554 -555 0
555 -556 0
556 -557 0
557 -563 0
518 -561 0
500 -558 0
501 -558 0
558 -560 0
505 -559 0
506 -559 0
559 -560 0
560 -561 0
-1 561 -562 0
562 -563 0
563 -564 0
564 -566 0
-14 -565 0
-13 -565 0
565 -566 0
566 -567 0
2 -579 0
-120 -578 0
562 -577 0
-14 -576 0
-122 -570 0
491 -569 0
18 -568 0
496 -568 0
568 -569 0
569 -570 0
440 570 -571 0
571 -575 0
526 -573 0
-37 -572 0
38 -572 0
572 -573 0
-440 573 -574 0
574 -575 0
575 -576 0
576 -577 0
577 -578 0
578 -579 0
536 548 567 579 -580 0
511 580 -581 0
1 -613 0
-119 -601 0
-121 -582 0
11 -582 0
582 -600 0
-35 584 0
-37 584 0
35 37 -584 0
-584 -585 0
-15 583 0
-17 583 0
15 17 -583 0
-583 -585 0
409 585 -586 0
586 -599 0
31 -591 0
507 -588 0
-35 -587 0
502 -587 0
587 -588 0
588 -590 0
-17 -589 0
15 -589 0
589 -590 0
590 -591 0
33 -596 0
505 -593 0
-37 -592 0
500 -592 0
592 -593 0
593 -595 0
-15 -594 0
17 -594 0
594 -595 0
595 -596 0
591 596 -597 0
-409 597 -598 0
598 -599 0
599 -600 0
600 -601 0
601 -612 0
495 -603 0
-15 -602 0
490 -602 0
602 -603 0
603 -611 0
501 -604 0
503 -604 0
604 -606 0
506 -605 0
508 -605 0
605 -606 0
606 -610 0
490 -607 0
492 -607 0
607 -609 0
495 -608 0
497 -608 0
608 -609 0
609 -610 0
610 -611 0
611 -612 0
612 -613 0
1 -645 0
-119 -633 0
-121 -614 0
12 -614 0
614 -632 0
-36 616 0
-38 616 0
36 38 -616 0
-616 -617 0
-16 615 0
-18 615 0
16 18 -615 0
-615 -617 0
441 617 -618 0
618 -631 0
32 -623 0
508 -620 0
-36 -619 0
503 -619 0
619 -620 0
620 -622 0
-18 -621 0
16 -621 0
621 -622 0
622 -623 0
34 -628 0
506 -625 0
-38 -624 0
501 -624 0
624 -625 0
625 -627 0
-16 -626 0
18 -626 0
626 -627 0
627 -628 0
623 628 -629 0
-441 629 -630 0
630 -631 0
631 -632 0
632 -633 0
633 -644 0
494 -635 0
-16 -634 0
489 -634 0
634 -635 0
635 -643 0
500 -636 0
502 -636 0
636 -638 0
505 -637 0
507 -637 0
637 -638 0
638 -642 0
489 -639 0
491 -639 0
639 -641 0
494 -640 0
496 -640 0
640 -641 0
641 -642 0
642 -643 0
643 -644 0
644 -645 0
2 -653 0
-120 -648 0
599 -647 0
-122 -646 0
13 -646 0
646 -647 0
647 -648 0
648 -652 0
610 -651 0
497 -650 0
-17 -649 0
492 -649 0
649 -650 0
650 -651 0
651 -652 0
652 -653 0
2 -661 0
-120 -656 0
631 -655 0
-122 -654 0
14 -654 0
654 -655 0
655 -656 0
656 -660 0
642 -659 0
496 -658 0
-18 -657 0
491 -657 0
657 -658 0
658 -659 0
659 -660 0
660 -661 0
613 645 653 661 -662 0
581 662 -663 0
663 -839 0
-19 15 -664 0
664 -668 0
-20 16 -665 0
665 -668 0
-21 17 -666 0
666 -668 0
-22 18 -667 0
667 -668 0
668 -674 0
-15 19 -669 0
669 -673 0
-16 20 -670 0
670 -673 0
-17 21 -671 0
671 -673 0
-18 22 -672 0
672 -673 0
673 -674 0
674 -686 0
-39 35 -675 0
675 -679 0
-40 36 -676 0
676 -679 0
-41 37 -677 0
677 -679 0
-42 38 -678 0
678 -679 0
679 -685 0
-35 39 -680 0
680 -684 0
-36 40 -681 0
681 -684 0
-37 41 -682 0
682 -684 0
-38 42 -683 0
683 -684 0
684 -685 0
685 -686 0
1 -711 0
-121 -708 0
-15 -698 0
-39 123 0
-40 123 0
-123 -689 0
665 -688 0
19 -687 0
670 -687 0
687 -688 0
688 -689 0
583 689 -690 0
690 -697 0
664 -691 0
665 -691 0
691 -693 0
669 -692 0
670 -692 0
692 -693 0
693 -695 0
-40 -694 0
39 -694 0
694 -695 0
-583 695 -696 0
696 -697 0
697 -698 0
698 -707 0
666 -699 0
667 -699 0
699 -701 0
671 -700 0
672 -700 0
700 -701 0
701 -705 0
677 -702 0
678 -702 0
702 -704 0
682 -703 0
683 -703 0
703 -704 0
704 -705 0
-2 705 -706 0
706 -707 0
707 -708 0
708 -710 0
-16 -709 0
-15 -709 0
709 -710 0
710 -711 0
1 -723 0
-121 -722 0
706 -721 0
-16 -720 0
-123 -714 0
664 -713 0
20 -712 0
669 -712 0
712 -713 0
713 -714 0
615 714 -715 0
715 -719 0
693 -717 0
-39 -716 0
40 -716 0
716 -717 0
-615 717 -718 0
718 -719 0
719 -720 0
720 -721 0
721 -722 0
722 -723 0
2 -742 0
-122 -739 0
-17 -732 0
-41 124 0
-42 124 0
-124 -726 0
667 -725 0
21 -724 0
672 -724 0
724 -725 0
725 -726 0
583 726 -727 0
727 -731 0
701 -729 0
-42 -728 0
41 -728 0
728 -729 0
-583 729 -730 0
730 -731 0
731 -732 0
732 -738 0
693 -736 0
675 -733 0
676 -733 0
733 -735 0
680 -734 0
681 -734 0
734 -735 0
735 -736 0
-1 736 -737 0
737 -738 0
738 -739 0
739 -741 0
-18 -740 0
-17 -740 0
740 -741 0
741 -742 0
2 -754 0
-122 -753 0
737 -752 0
-18 -751 0
-124 -745 0
666 -744 0
22 -743 0
671 -743 0
743 -744 0
744 -745 0
615 745 -746 0
746 -750 0
701 -748 0
-41 -747 0
42 -747 0
747 -748 0
-615 748 -749 0
749 -750 0
750 -751 0
751 -752 0
752 -753 0
753 -754 0
711 723 742 754 -755 0
686 755 -756 0
1 -788 0
-121 -776 0
-123 -757 0
15 -757 0
757 -775 0
-39 759 0
-41 759 0
-759 -760 0
-19 758 0
-21 758 0
-758 -760 0
584 760 -761 0
761 -774 0
35 -766 0
682 -763 0
-39 -762 0
677 -762 0
762 -763 0
763 -765 0
-21 -764 0
19 -764 0
764 -765 0
765 -766 0
37 -771 0
680 -768 0
-41 -767 0
675 -767 0
767 -768 0
768 -770 0
-19 -769 0
21 -769 0
769 -770 0
770 -771 0
766 771 -772 0
-584 772 -773 0
773 -774 0
774 -775 0
775 -776 0
776 -787 0
670 -778 0
-19 -777 0
665 -777 0
777 -778 0
778 -786 0
676 -779 0
678 -779 0
779 -781 0
681 -780 0
683 -780 0
780 -781 0
781 -785 0
665 -782 0
667 -782 0
782 -784 0
670 -783 0
672 -783 0
783 -784 0
784 -785 0
785 -786 0
786 -787 0
787 -788 0
1 -820 0
-121 -808 0
-123 -789 0
16 -789 0
789 -807 0
-40 791 0
-42 791 0
-791 -792 0
-20 790 0
-22 790 0
-790 -792 0
616 792 -793 0
793 -806 0
36 -798 0
683 -795 0
-40 -794 0
678 -794 0
794 -795 0
795 -797 0
-22 -796 0
20 -796 0
796 -797 0
797 -798 0
38 -803 0
681 -800 0
-42 -799 0
676 -799 0
799 -800 0
800 -802 0
-20 -801 0
22 -801 0
801 -802 0
802 -803 0
798 803 -804 0
-616 804 -805 0
805 -806 0
806 -807 0
807 -808 0
808 -819 0
669 -810 0
-20 -809 0
664 -809 0
809 -810 0
810 -818 0
675 -811 0
677 -811 0
811 -813 0
680 -812 0
682 -812 0
812 -813 0
813 -817 0
664 -814 0
666 -814 0
814 -816 0
669 -815 0
671 -815 0
815 -816 0
816 -817 0
817 -818 0
818 -819 0
819 -820 0
2 -828 0
-122 -823 0
774 -822 0
-124 -821 0
17 -821 0
821 -822 0
822 -823 0
823 -827 0
785 -826 0
672 -825 0
-21 -824 0
667 -824 0
824 -825 0
825 -826 0
826 -827 0
827 -828 0
2 -836 0
-122 -831 0
806 -830 0
-124 -829 0
18 -829 0
829 -830 0
830 -831 0
831 -835 0
817 -834 0
671 -833 0
-22 -832 0
666 -832 0
832 -833 0
833 -834 0
834 -835 0
835 -836 0
788 820 828 836 -837 0
756 837 -838 0
838 -839 0
839 -840 0
1 2 -841 0
841 -881 0
-44 -43 -842 0
842 -850 0
-43 843 0
-44 843 0
43 44 -843 0
-843 -45 -844 0
844 -850 0
-45 845 0
-843 845 0
45 843 -845 0
-845 -46 -846 0
846 -850 0
-46 847 0
-845 847 0
46 845 -847 0
-847 -47 -848 0
848 -850 0
47 847 -849 0
849 -850 0
850 -880 0
23 -851 0
43 -851 0
27 -855 0
44 -855 0
31 -859 0
45 -859 0
35 -863 0
46 -863 0
39 -867 0
47 -867 0
851 855 859 863 867 -871 0
24 -852 0
43 -852 0
28 -856 0
44 -856 0
32 -860 0
45 -860 0
36 -864 0
46 -864 0
40 -868 0
47 -868 0
852 856 860 864 868 -872 0
871 872 -875 0
-1 875 -876 0
876 -879 0
25 -853 0
43 -853 0
29 -857 0
44 -857 0
33 -861 0
45 -861 0
37 -865 0
46 -865 0
41 -869 0
47 -869 0
853 857 861 865 869 -873 0
26 -854 0
43 -854 0
30 -858 0
44 -858 0
34 -862 0
45 -862 0
38 -866 0
46 -866 0
42 -870 0
47 -870 0
854 858 862 866 870 -874 0
873 874 -877 0
-2 877 -878 0
878 -879 0
879 -880 0
880 -881 0
23 24 25 26 27 28 29 30 31 32 33 34 35 36 37 38 39 40 41 42 -882 0
73 0
114 0
840 0
881 0
882 0
